; benchmark generated from python API
(set-info :status unknown)
(declare-fun x_month () Int)
(declare-fun x_day () Int)
(declare-fun x_year () Int)
(declare-fun y_month () Int)
(declare-fun y_day () Int)
(declare-fun y_year () Int)
(assert
 (>= x_month 1))
(assert
 (<= x_month 12))
(assert
 (>= x_day 1))
(assert
 (<= x_day 31))
(assert
 (let (($x164 (<= x_day 28)))
 (let (($x700 (<= x_day 29)))
 (let (($x166 (= (mod x_year 400) 0)))
 (let (($x387 (= (mod x_year 4) 0)))
 (let (($x282 (ite (or (and $x387 (and (distinct (mod x_year 100) 0) true)) $x166) $x700 $x164)))
 (let (($x679 (= x_month 2)))
 (ite $x679 $x282 true))))))))
(assert
 (let (($x384 (<= x_day 30)))
 (let (($x706 (= x_month 6)))
 (let (($x383 (or (= x_month 4) $x706 (= x_month 9) (= x_month 11))))
 (ite $x383 $x384 true)))))
(assert
 (>= y_month 1))
(assert
 (<= y_month 12))
(assert
 (>= y_day 1))
(assert
 (<= y_day 31))
(assert
 (let (($x460 (<= y_day 28)))
 (let (($x583 (<= y_day 29)))
 (let (($x377 (= (mod y_year 400) 0)))
 (let (($x123 (= (mod y_year 4) 0)))
 (let (($x191 (ite (or (and $x123 (and (distinct (mod y_year 100) 0) true)) $x377) $x583 $x460)))
 (let (($x600 (= y_month 2)))
 (ite $x600 $x191 true))))))))
(assert
 (let (($x440 (<= y_day 30)))
 (let (($x32 (= y_month 6)))
 (let (($x467 (or (= y_month 4) $x32 (= y_month 9) (= y_month 11))))
 (ite $x467 $x440 true)))))
(assert
 (let (($x661 (= x_year 2023)))
 (let (($x135 (and $x661 (or (> x_month 6) (and (= x_month 6) (>= x_day 1))))))
 (or (> x_year 2023) $x135))))
(assert
 (let ((?x74 (+ (mod (- (+ x_month (+ (* 0 12) 1)) 1) 12) 1)))
 (let ((?x479 (ite (or (= ?x74 4) (= ?x74 6) (= ?x74 9) (= ?x74 11)) 30 31)))
 (let ((?x110 (+ 0 (div (- (+ x_month (+ (* 0 12) 1)) 1) 12))))
 (let ((?x613 (+ x_year ?x110)))
 (let (($x316 (or (and (= (mod ?x613 4) 0) (and (distinct (mod ?x613 100) 0) true)) (= (mod ?x613 400) 0))))
 (let ((?x63 (ite (= ?x74 2) (ite $x316 29 28) ?x479)))
 (let ((?x272 (ite (< x_day 1) 1 (ite (> x_day ?x63) ?x63 x_day))))
 (let ((?x1239 (ite (< ?x272 1) 1 (ite (> ?x272 ?x63) ?x63 ?x272))))
 (let ((?x555 (ite (= 2 ?x74) (ite $x316 31 31) (ite (= 1 ?x74) (ite $x316 0 0) 0))))
 (let ((?x184 (ite (= 4 ?x74) (ite $x316 91 90) (ite (= 3 ?x74) (ite $x316 60 59) ?x555))))
 (let ((?x341 (ite (= 6 ?x74) (ite $x316 152 151) (ite (= 5 ?x74) (ite $x316 121 120) ?x184))))
 (let ((?x476 (ite (= 8 ?x74) (ite $x316 213 212) (ite (= 7 ?x74) (ite $x316 182 181) ?x341))))
 (let ((?x203 (ite (= 10 ?x74) (ite $x316 274 273) (ite (= 9 ?x74) (ite $x316 244 243) ?x476))))
 (let ((?x145 (ite (= 12 ?x74) (ite $x316 335 334) (ite (= 11 ?x74) (ite $x316 305 304) ?x203))))
 (let ((?x762 (- (+ (* 365 (- ?x613 1)) (div (- ?x613 1) 4)) (div (- ?x613 1) 100))))
 (let ((?x738 (- (+ (+ (+ ?x762 (div (- ?x613 1) 400)) ?x145) (- ?x1239 1)) 730179)))
 (let ((?x737 (+ (+ ?x738 0) 730179)))
 (let ((?x771 (mod ?x737 146097)))
 (let ((?x688 (div ?x771 36524)))
 (let ((?x702 (ite (<= 4 ?x688) 3 ?x688)))
 (let ((?x579 (- ?x771 (* ?x702 36524))))
 (let ((?x322 (mod ?x579 1461)))
 (let ((?x485 (div ?x322 365)))
 (let ((?x543 (ite (<= 4 ?x485) 3 ?x485)))
 (let ((?x2373 (+ (+ (* (div ?x737 146097) 400) (* ?x702 100)) (* (div ?x579 1461) 4))))
 (let ((?x445 (+ (+ ?x2373 ?x543) 1)))
 (let (($x300 (or (and (= (mod ?x445 4) 0) (and (distinct (mod ?x445 100) 0) true)) (= (mod ?x445 400) 0))))
 (let ((?x396 (- ?x322 (* ?x543 365))))
 (let ((?x397 (ite $x300 31 31)))
 (let (($x421 (>= ?x396 ?x397)))
 (let ((?x59 (ite $x421 (+ (- ?x396 ?x397) 1) (+ (- ?x396 (ite $x300 0 0)) 1))))
 (let ((?x1015 (ite $x300 60 59)))
 (let (($x349 (>= ?x396 ?x1015)))
 (let ((?x581 (ite $x300 91 90)))
 (let (($x120 (>= ?x396 ?x581)))
 (let ((?x779 (ite $x120 (+ (- ?x396 ?x581) 1) (ite $x349 (+ (- ?x396 ?x1015) 1) ?x59))))
 (let ((?x343 (ite $x300 121 120)))
 (let (($x417 (>= ?x396 ?x343)))
 (let ((?x553 (ite $x300 152 151)))
 (let (($x592 (>= ?x396 ?x553)))
 (let ((?x1900 (ite $x592 (+ (- ?x396 ?x553) 1) (ite $x417 (+ (- ?x396 ?x343) 1) ?x779))))
 (let ((?x350 (ite $x300 182 181)))
 (let (($x247 (>= ?x396 ?x350)))
 (let ((?x444 (ite $x300 213 212)))
 (let (($x540 (>= ?x396 ?x444)))
 (let ((?x3122 (ite $x540 (+ (- ?x396 ?x444) 1) (ite $x247 (+ (- ?x396 ?x350) 1) ?x1900))))
 (let ((?x205 (ite $x300 244 243)))
 (let (($x320 (>= ?x396 ?x205)))
 (let ((?x149 (ite $x300 274 273)))
 (let (($x200 (>= ?x396 ?x149)))
 (let ((?x2958 (ite $x200 (+ (- ?x396 ?x149) 1) (ite $x320 (+ (- ?x396 ?x205) 1) ?x3122))))
 (let ((?x11 (ite $x300 305 304)))
 (let (($x147 (>= ?x396 ?x11)))
 (let ((?x474 (ite $x300 335 334)))
 (let (($x41 (>= ?x396 ?x474)))
 (let ((?x410 (ite $x41 (+ (- ?x396 ?x474) 1) (ite $x147 (+ (- ?x396 ?x11) 1) ?x2958))))
 (let (($x1240 (= 0 0)))
 (let ((?x552 (ite $x1240 ?x1239 ?x410)))
 (let ((?x505 (ite $x417 5 (ite $x120 4 (ite $x349 3 (ite $x421 2 1))))))
 (let ((?x332 (ite $x320 9 (ite $x540 8 (ite $x247 7 (ite $x592 6 ?x505))))))
 (let ((?x747 (+ (ite $x1240 ?x74 (ite $x41 12 (ite $x147 11 (ite $x200 10 ?x332)))) (+ (* 0 12) 0))))
 (let ((?x2174 (- ?x747 1)))
 (let ((?x731 (+ (mod ?x2174 12) 1)))
 (let ((?x325 (ite (or (= ?x731 4) (= ?x731 6) (= ?x731 9) (= ?x731 11)) 30 31)))
 (let (($x519 (= (mod (+ (ite $x1240 ?x613 ?x445) (+ 0 (div ?x2174 12))) 400) 0)))
 (let (($x512 (and (distinct (mod (+ (ite $x1240 ?x613 ?x445) (+ 0 (div ?x2174 12))) 100) 0) true)))
 (let (($x223 (= (mod (+ (ite $x1240 ?x613 ?x445) (+ 0 (div ?x2174 12))) 4) 0)))
 (let (($x478 (or (and $x223 $x512) $x519)))
 (let ((?x306 (ite (= ?x731 2) (ite $x478 29 28) ?x325)))
 (let ((?x146 (ite (< ?x552 1) 1 (ite (> ?x552 ?x306) ?x306 ?x552))))
 (let ((?x660 (ite (< ?x146 1) 1 (ite (> ?x146 ?x306) ?x306 ?x146))))
 (let ((?x297 (ite (= 2 ?x731) (ite $x478 31 31) (ite (= 1 ?x731) (ite $x478 0 0) 0))))
 (let ((?x1387 (ite (= 4 ?x731) (ite $x478 91 90) (ite (= 3 ?x731) (ite $x478 60 59) ?x297))))
 (let ((?x462 (ite (= 6 ?x731) (ite $x478 152 151) (ite (= 5 ?x731) (ite $x478 121 120) ?x1387))))
 (let ((?x687 (ite (= 8 ?x731) (ite $x478 213 212) (ite (= 7 ?x731) (ite $x478 182 181) ?x462))))
 (let ((?x2616 (ite (= 10 ?x731) (ite $x478 274 273) (ite (= 9 ?x731) (ite $x478 244 243) ?x687))))
 (let ((?x573 (ite (= 12 ?x731) (ite $x478 335 334) (ite (= 11 ?x731) (ite $x478 305 304) ?x2616))))
 (let ((?x98 (+ (ite $x1240 ?x613 ?x445) (+ 0 (div ?x2174 12)))))
 (let ((?x61 (- ?x98 1)))
 (let ((?x263 (+ (- (+ (* 365 ?x61) (div ?x61 4)) (div ?x61 100)) (div ?x61 400))))
 (let ((?x2804 (+ (+ (- (+ (+ ?x263 ?x573) (- ?x660 1)) 730179) 15) 730179)))
 (let ((?x699 (mod ?x2804 146097)))
 (let ((?x662 (div ?x699 36524)))
 (let ((?x671 (ite (<= 4 ?x662) 3 ?x662)))
 (let ((?x615 (- ?x699 (* ?x671 36524))))
 (let ((?x621 (mod ?x615 1461)))
 (let ((?x114 (div ?x621 365)))
 (let ((?x302 (ite (<= 4 ?x114) 3 ?x114)))
 (let ((?x88 (+ (+ (* (div ?x2804 146097) 400) (* ?x671 100)) (* (div ?x615 1461) 4))))
 (let ((?x678 (+ (+ ?x88 ?x302) 1)))
 (let (($x174 (or (and (= (mod ?x678 4) 0) (and (distinct (mod ?x678 100) 0) true)) (= (mod ?x678 400) 0))))
 (let ((?x118 (- ?x621 (* ?x302 365))))
 (let ((?x49 (ite $x174 31 31)))
 (let (($x16 (>= ?x118 ?x49)))
 (let ((?x898 (ite $x16 (+ (- ?x118 ?x49) 1) (+ (- ?x118 (ite $x174 0 0)) 1))))
 (let ((?x255 (ite $x174 60 59)))
 (let (($x1672 (>= ?x118 ?x255)))
 (let ((?x420 (ite $x174 91 90)))
 (let (($x770 (>= ?x118 ?x420)))
 (let ((?x725 (ite $x770 (+ (- ?x118 ?x420) 1) (ite $x1672 (+ (- ?x118 ?x255) 1) ?x898))))
 (let ((?x175 (ite $x174 121 120)))
 (let (($x14 (>= ?x118 ?x175)))
 (let ((?x132 (ite $x174 152 151)))
 (let (($x2147 (>= ?x118 ?x132)))
 (let ((?x2629 (ite $x2147 (+ (- ?x118 ?x132) 1) (ite $x14 (+ (- ?x118 ?x175) 1) ?x725))))
 (let ((?x195 (ite $x174 182 181)))
 (let (($x314 (>= ?x118 ?x195)))
 (let ((?x168 (ite $x174 213 212)))
 (let (($x666 (>= ?x118 ?x168)))
 (let ((?x524 (ite $x666 (+ (- ?x118 ?x168) 1) (ite $x314 (+ (- ?x118 ?x195) 1) ?x2629))))
 (let ((?x562 (ite $x174 244 243)))
 (let (($x748 (>= ?x118 ?x562)))
 (let ((?x225 (ite $x174 274 273)))
 (let (($x190 (>= ?x118 ?x225)))
 (let ((?x81 (ite $x190 (+ (- ?x118 ?x225) 1) (ite $x748 (+ (- ?x118 ?x562) 1) ?x524))))
 (let ((?x87 (ite $x174 305 304)))
 (let (($x198 (>= ?x118 ?x87)))
 (let ((?x645 (ite $x174 335 334)))
 (let (($x1681 (>= ?x118 ?x645)))
 (let ((?x374 (ite $x1681 (+ (- ?x118 ?x645) 1) (ite $x198 (+ (- ?x118 ?x87) 1) ?x81))))
 (let (($x337 (= 0 15)))
 (let ((?x3128 (ite $x14 5 (ite $x770 4 (ite $x1672 3 (ite $x16 2 1))))))
 (let ((?x2991 (ite $x748 9 (ite $x666 8 (ite $x314 7 (ite $x2147 6 ?x3128))))))
 (let ((?x1986 (ite $x1681 12 (ite $x198 11 (ite $x190 10 ?x2991)))))
 (and (= (ite $x337 ?x98 ?x678) y_year) (= (ite $x337 ?x731 ?x1986) y_month) (= (ite $x337 ?x660 ?x374) y_day)))))))))))))))))))))))))))))))))))))))))))))))))))))))))))))))))))))))))))))))))))))))))))))))))))))))))))))))))))))))))))))))
(assert
 (let (($x2903 (= y_year 2023)))
(let (($x634 (and $x2903 (or (> y_month 6) (and (= y_month 6) (>= y_day 1))))))
(or (> y_year 2023) $x634))))
(check-sat)
